p cnf 58 176
a 12 38 0
e 1 2 3 4 5 6 7 8 9 10 11 13 14 15 16 17 18 19 20 21 22 23 24 25 26 27 28 29 30 31 32 33 34 35 36 37 39 40 41 42 43 44 45 46 47 48 49 50 51 52 53 54 55 56 57 58 0
1 -2 -3 0
-1 2 -3 0
1 2 3 0
-1 -2 3 0
-4 -5 -6 0
4 5 -6 0
-4 5 6 0
4 -5 6 0
-7 1 0
-7 6 0
-1 -6 7 0
-8 1 0
-8 2 0
-1 -2 8 0
10 8 0
10 9 0
-8 -9 -10 0
-10 -1 -11 0
10 1 -11 0
-10 1 11 0
10 -1 11 0
13 -12 0
13 -3 0
12 3 -13 0
-14 11 0
-14 13 0
-11 -13 14 0
15 -7 0
15 -14 0
7 14 -15 0
-3 -15 -16 0
3 15 -16 0
-3 15 16 0
3 -15 16 0
-17 -4 0
-17 -12 0
4 12 17 0
18 17 0
18 -1 0
-17 1 -18 0
-19 -1 0
-19 18 0
1 -18 19 0
-20 18 -21 0
20 -18 -21 0
-20 -18 21 0
20 18 21 0
22 19 0
22 -21 0
-19 21 -22 0
-24 -9 0
-24 23 0
9 -23 24 0
-25 22 0
-25 24 0
-22 -24 25 0
-26 -16 0
-26 25 0
16 -25 26 0
-27 -6 0
-27 3 0
6 -3 27 0
-29 27 0
-29 28 0
-27 -28 29 0
-30 -26 0
-30 29 0
26 -29 30 0
-31 10 -32 0
31 -10 -32 0
-31 -10 32 0
31 10 32 0
-33 -15 0
-33 -12 0
15 12 33 0
34 -33 0
34 -28 0
33 28 -34 0
-35 32 0
-35 34 0
-32 -34 35 0
36 -4 0
36 -4 0
4 -36 0
36 -11 -37 0
-36 11 -37 0
36 11 37 0
-36 -11 37 0
38 -18 0
38 15 0
18 -15 -38 0
-37 -38 -39 0
37 38 -39 0
-37 38 39 0
37 -38 39 0
-31 -4 -40 0
31 4 -40 0
-31 4 40 0
31 -4 40 0
40 -9 -41 0
-40 9 -41 0
40 9 41 0
-40 -9 41 0
42 -6 0
42 31 0
6 -31 -42 0
43 -18 0
43 4 0
18 -4 -43 0
-42 -43 -44 0
42 43 -44 0
-42 43 44 0
42 -43 44 0
41 -44 -45 0
-41 44 -45 0
41 44 45 0
-41 -44 45 0
-46 40 0
-46 14 0
-40 -14 46 0
-36 -46 -47 0
36 46 -47 0
-36 46 47 0
36 -46 47 0
-48 -45 0
-48 47 0
45 -47 48 0
49 3 0
49 -27 0
-3 27 -49 0
-50 -49 0
-50 -40 0
49 40 50 0
51 -9 0
51 -15 0
9 15 -51 0
50 51 -52 0
-50 -51 -52 0
50 -51 52 0
-50 51 52 0
-48 -52 -53 0
48 52 -53 0
-48 52 53 0
48 -52 53 0
54 39 0
54 53 0
-39 -53 -54 0
-55 -35 0
-55 -54 0
35 54 55 0
56 -4 0
56 -3 0
4 3 -56 0
57 -55 0
57 -56 0
55 56 -57 0
-58 -30 0
-58 57 0
30 -57 58 0
15 11 -41 0
12 53 3 14 -23 -11 -47 0
-10 32 -15 -18 -20 26 0
5 44 -7 43 -39 13 -47 38 0
-25 -39 -15 -26 0
-46 18 23 14 0
27 -49 44 -24 0
-4 33 50 47 -19 0
-25 -20 -48 19 43 29 -49 0
-3 39 -28 0
-12 40 -49 58 0
-48 12 9 -29 -24 -39 57 0
12 52 10 0
39 2 -44 0
14 -32 9 24 41 28 -52 0
-35 -11 -23 13 0
58 0
